%%%mzn-stat: initTime=0.019080317
%%%mzn-stat: objective=209
%%%mzn-stat: nodes=1212
%%%mzn-stat: restarts=0
%%%mzn-stat: peakDepth=500
%%%mzn-stat: solveTime=0.271123177
%%%mzn-stat: variables=1094
%%%mzn-stat: propagators=804
%%%mzn-stat: failures=483
%%%mzn-stat: propagations=68316
%%%mzn-stat: nogoods=483
%%%mzn-stat: AverageConflictSize=5.648033126293996
%%%mzn-stat: NumUnitNogoodsLearned=208
%%%mzn-stat: AverageLearnedNogoodLength=21.194616977225675
%%%mzn-stat: AverageBacktrackAmount=0
%%%mzn-stat: AverageLbd=7.62111801242236
%%%mzn-stat-end
maxleg = 209;
succ = array1d(1..100,[24, 66, 72, 75, 4, 68, 88, 10, 82, 15, 38, 11, 85, 23, 37, 21, 30, 92, 96, 9, 41, 71, 86, 94, 26, 16, 51, 80, 67, 48, 95, 35, 64, 97, 76, 6, 2, 62, 28, 5, 52, 20, 32, 47, 14, 42, 87, 25, 54, 58, 63, 55, 77, 12, 46, 1, 17, 34, 19, 49, 81, 79, 13, 7, 3, 91, 100, 53, 33, 65, 36, 89, 61, 70, 99, 50, 93, 98, 78, 56, 84, 90, 22, 39, 59, 44, 40, 27, 83, 45, 31, 57, 18, 8, 29, 43, 60, 74, 73, 69]);
% time elapsed: 7.08 s
----------
==========
% time elapsed: 7.08 s
%%%mzn-stat: initTime=0.019080317
%%%mzn-stat: objective=209
%%%mzn-stat: nodes=1212
%%%mzn-stat: restarts=0
%%%mzn-stat: peakDepth=500
%%%mzn-stat: solveTime=0.271136994
%%%mzn-stat: variables=1094
%%%mzn-stat: propagators=804
%%%mzn-stat: failures=483
%%%mzn-stat: propagations=68316
%%%mzn-stat: nogoods=483
%%%mzn-stat: AverageConflictSize=5.648033126293996
%%%mzn-stat: NumUnitNogoodsLearned=208
%%%mzn-stat: AverageLearnedNogoodLength=21.194616977225675
%%%mzn-stat: AverageBacktrackAmount=0
%%%mzn-stat: AverageLbd=7.62111801242236
%%%mzn-stat-end
